c strEdges: 189  randomEdges: 441 
c degrees:  2  3 
c girth: 10 max: 8.032766  
c Hgirth mixed MAXCUT instance
c generated from an undirected graph
c to solve unweighted MaxCut
p cnf 140 1260
104 128 0
-104 -128 0
104 42 0
-104 -42 0
104 11 0
-104 -11 0
96 26 0
-96 -26 0
96 34 0
-96 -34 0
96 130 0
-96 -130 0
138 59 0
-138 -59 0
138 71 0
-138 -71 0
138 118 0
-138 -118 0
85 95 0
-85 -95 0
85 30 0
-85 -30 0
85 56 0
-85 -56 0
134 130 0
-134 -130 0
134 66 0
-134 -66 0
134 117 0
-134 -117 0
52 90 0
-52 -90 0
52 62 0
-52 -62 0
52 5 0
-52 -5 0
18 133 0
-18 -133 0
18 60 0
-18 -60 0
53 42 0
-53 -42 0
53 105 0
-53 -105 0
53 3 0
-53 -3 0
74 98 0
-74 -98 0
74 55 0
-74 -55 0
86 56 0
-86 -56 0
86 16 0
-86 -16 0
86 101 0
-86 -101 0
87 19 0
-87 -19 0
87 84 0
-87 -84 0
87 128 0
-87 -128 0
88 40 0
-88 -40 0
88 98 0
-88 -98 0
88 115 0
-88 -115 0
29 11 0
-29 -11 0
29 135 0
-29 -135 0
29 101 0
-29 -101 0
48 5 0
-48 -5 0
48 122 0
-48 -122 0
81 30 0
-81 -30 0
81 24 0
-81 -24 0
81 113 0
-81 -113 0
73 61 0
-73 -61 0
73 15 0
-73 -15 0
73 59 0
-73 -59 0
140 137 0
-140 -137 0
140 17 0
-140 -17 0
140 24 0
-140 -24 0
106 71 0
-106 -71 0
106 49 0
-106 -49 0
27 97 0
-27 -97 0
27 133 0
-27 -133 0
2 31 0
-2 -31 0
2 49 0
-2 -49 0
2 8 0
-2 -8 0
72 47 0
-72 -47 0
72 136 0
-72 -136 0
92 12 0
-92 -12 0
92 95 0
-92 -95 0
92 35 0
-92 -35 0
99 91 0
-99 -91 0
99 36 0
-99 -36 0
103 101 0
-103 -101 0
103 32 0
-103 -32 0
103 98 0
-103 -98 0
77 23 0
-77 -23 0
77 126 0
-77 -126 0
46 36 0
-46 -36 0
46 97 0
-46 -97 0
46 118 0
-46 -118 0
44 127 0
-44 -127 0
44 22 0
-44 -22 0
123 113 0
-123 -113 0
123 94 0
-123 -94 0
107 105 0
-107 -105 0
107 26 0
-107 -26 0
107 36 0
-107 -36 0
67 22 0
-67 -22 0
67 75 0
-67 -75 0
67 60 0
-67 -60 0
114 38 0
-114 -38 0
114 69 0
-114 -69 0
114 16 0
-114 -16 0
51 60 0
-51 -60 0
51 122 0
-51 -122 0
51 69 0
-51 -69 0
13 124 0
-13 -124 0
13 22 0
-13 -22 0
13 12 0
-13 -12 0
80 126 0
-80 -126 0
80 26 0
-80 -26 0
41 115 0
-41 -115 0
41 68 0
-41 -68 0
41 19 0
-41 -19 0
93 33 0
-93 -33 0
93 11 0
-93 -11 0
93 100 0
-93 -100 0
21 68 0
-21 -68 0
21 23 0
-21 -23 0
21 1 0
-21 -1 0
43 24 0
-43 -24 0
43 31 0
-43 -31 0
43 132 0
-43 -132 0
110 66 0
-110 -66 0
110 128 0
-110 -128 0
6 118 0
-6 -118 0
6 124 0
-6 -124 0
139 89 0
-139 -89 0
139 8 0
-139 -8 0
139 33 0
-139 -33 0
119 17 0
-119 -17 0
119 40 0
-119 -40 0
112 15 0
-112 -15 0
112 32 0
-112 -32 0
112 136 0
-112 -136 0
102 39 0
-102 -39 0
102 115 0
-102 -115 0
63 135 0
-63 -135 0
63 127 0
-63 -127 0
63 116 0
-63 -116 0
14 136 0
-14 -136 0
14 89 0
-14 -89 0
76 35 0
-76 -35 0
76 94 0
-76 -94 0
76 91 0
-76 -91 0
109 55 0
-109 -55 0
109 90 0
-109 -90 0
109 91 0
-109 -91 0
108 94 0
-108 -94 0
108 127 0
-108 -127 0
108 23 0
-108 -23 0
58 1 0
-58 -1 0
58 130 0
-58 -130 0
58 37 0
-58 -37 0
4 100 0
-4 -100 0
4 133 0
-4 -133 0
4 132 0
-4 -132 0
70 32 0
-70 -32 0
70 126 0
-70 -126 0
111 69 0
-111 -69 0
111 47 0
-111 -47 0
111 35 0
-111 -35 0
131 75 0
-131 -75 0
131 17 0
-131 -17 0
131 34 0
-131 -34 0
83 3 0
-83 -3 0
83 125 0
-83 -125 0
83 38 0
-83 -38 0
79 16 0
-79 -16 0
79 137 0
-79 -137 0
79 117 0
-79 -117 0
120 62 0
-120 -62 0
120 19 0
-120 -19 0
120 30 0
-120 -30 0
7 34 0
-7 -34 0
7 33 0
-7 -33 0
7 50 0
-7 -50 0
65 8 0
-65 -8 0
65 40 0
-65 -40 0
28 20 0
-28 -20 0
28 61 0
-28 -61 0
28 66 0
-28 -66 0
129 82 0
-129 -82 0
129 55 0
-129 -55 0
9 50 0
-9 -50 0
9 5 0
-9 -5 0
9 59 0
-9 -59 0
78 125 0
-78 -125 0
78 39 0
-78 -39 0
78 12 0
-78 -12 0
10 37 0
-10 -37 0
10 124 0
-10 -124 0
10 89 0
-10 -89 0
57 122 0
-57 -122 0
57 1 0
-57 -1 0
45 84 0
-45 -84 0
45 75 0
-45 -75 0
45 15 0
-45 -15 0
25 49 0
-25 -49 0
25 3 0
-25 -3 0
25 82 0
-25 -82 0
121 116 0
-121 -116 0
121 82 0
-121 -82 0
121 20 0
-121 -20 0
64 117 0
-64 -117 0
64 97 0
-64 -97 0
54 132 0
-54 -132 0
54 39 0
-54 -39 0
54 61 0
-54 -61 0
45 115 0
-45 -115 0
104 103 0
-104 -103 0
2 7 0
-2 -7 0
115 62 0
-115 -62 0
25 124 0
-25 -124 0
83 39 0
-83 -39 0
85 112 0
-85 -112 0
43 7 0
-43 -7 0
14 70 0
-14 -70 0
98 38 0
-98 -38 0
98 33 0
-98 -33 0
70 55 0
-70 -55 0
11 31 0
-11 -31 0
9 24 0
-9 -24 0
127 62 0
-127 -62 0
25 35 0
-25 -35 0
79 55 0
-79 -55 0
46 41 0
-46 -41 0
109 1 0
-109 -1 0
107 31 0
-107 -31 0
104 5 0
-104 -5 0
53 9 0
-53 -9 0
52 28 0
-52 -28 0
107 21 0
-107 -21 0
40 89 0
-40 -89 0
72 12 0
-72 -12 0
112 14 0
-112 -14 0
109 65 0
-109 -65 0
120 9 0
-120 -9 0
134 26 0
-134 -26 0
90 62 0
-90 -62 0
79 94 0
-79 -94 0
124 8 0
-124 -8 0
134 57 0
-134 -57 0
72 26 0
-72 -26 0
96 37 0
-96 -37 0
48 15 0
-48 -15 0
119 5 0
-119 -5 0
131 10 0
-131 -10 0
26 127 0
-26 -127 0
26 132 0
-26 -132 0
35 55 0
-35 -55 0
73 110 0
-73 -110 0
80 63 0
-80 -63 0
112 97 0
-112 -97 0
97 91 0
-97 -91 0
72 28 0
-72 -28 0
118 17 0
-118 -17 0
80 32 0
-80 -32 0
103 31 0
-103 -31 0
18 28 0
-18 -28 0
4 61 0
-4 -61 0
139 101 0
-139 -101 0
72 133 0
-72 -133 0
77 12 0
-77 -12 0
65 10 0
-65 -10 0
40 137 0
-40 -137 0
65 68 0
-65 -68 0
29 115 0
-29 -115 0
52 39 0
-52 -39 0
113 50 0
-113 -50 0
123 82 0
-123 -82 0
30 3 0
-30 -3 0
83 59 0
-83 -59 0
107 79 0
-107 -79 0
29 26 0
-29 -26 0
27 46 0
-27 -46 0
131 79 0
-131 -79 0
43 61 0
-43 -61 0
140 123 0
-140 -123 0
18 73 0
-18 -73 0
72 109 0
-72 -109 0
63 8 0
-63 -8 0
66 122 0
-66 -122 0
43 54 0
-43 -54 0
46 121 0
-46 -121 0
48 40 0
-48 -40 0
104 90 0
-104 -90 0
81 100 0
-81 -100 0
110 63 0
-110 -63 0
48 23 0
-48 -23 0
70 101 0
-70 -101 0
18 123 0
-18 -123 0
135 35 0
-135 -35 0
58 9 0
-58 -9 0
135 84 0
-135 -84 0
66 136 0
-66 -136 0
53 98 0
-53 -98 0
26 49 0
-26 -49 0
76 79 0
-76 -79 0
115 136 0
-115 -136 0
39 3 0
-39 -3 0
24 69 0
-24 -69 0
91 8 0
-91 -8 0
34 117 0
-34 -117 0
74 38 0
-74 -38 0
87 67 0
-87 -67 0
111 89 0
-111 -89 0
33 15 0
-33 -15 0
99 114 0
-99 -114 0
123 34 0
-123 -34 0
67 120 0
-67 -120 0
103 133 0
-103 -133 0
27 14 0
-27 -14 0
72 24 0
-72 -24 0
120 39 0
-120 -39 0
36 33 0
-36 -33 0
109 129 0
-109 -129 0
50 122 0
-50 -122 0
88 38 0
-88 -38 0
112 132 0
-112 -132 0
103 51 0
-103 -51 0
134 70 0
-134 -70 0
92 10 0
-92 -10 0
130 20 0
-130 -20 0
67 30 0
-67 -30 0
2 71 0
-2 -71 0
18 55 0
-18 -55 0
126 118 0
-126 -118 0
61 34 0
-61 -34 0
106 84 0
-106 -84 0
72 33 0
-72 -33 0
139 16 0
-139 -16 0
27 100 0
-27 -100 0
12 84 0
-12 -84 0
99 59 0
-99 -59 0
126 37 0
-126 -37 0
12 105 0
-12 -105 0
106 16 0
-106 -16 0
91 37 0
-91 -37 0
93 1 0
-93 -1 0
133 42 0
-133 -42 0
111 32 0
-111 -32 0
105 100 0
-105 -100 0
70 34 0
-70 -34 0
44 13 0
-44 -13 0
130 89 0
-130 -89 0
96 28 0
-96 -28 0
53 63 0
-53 -63 0
140 22 0
-140 -22 0
41 61 0
-41 -61 0
106 24 0
-106 -24 0
25 97 0
-25 -97 0
13 47 0
-13 -47 0
127 122 0
-127 -122 0
52 59 0
-52 -59 0
43 4 0
-43 -4 0
43 136 0
-43 -136 0
51 3 0
-51 -3 0
93 101 0
-93 -101 0
52 26 0
-52 -26 0
65 75 0
-65 -75 0
6 126 0
-6 -126 0
63 101 0
-63 -101 0
88 46 0
-88 -46 0
140 127 0
-140 -127 0
104 32 0
-104 -32 0
6 70 0
-6 -70 0
85 129 0
-85 -129 0
114 117 0
-114 -117 0
10 24 0
-10 -24 0
31 3 0
-31 -3 0
85 89 0
-85 -89 0
78 31 0
-78 -31 0
108 132 0
-108 -132 0
96 9 0
-96 -9 0
76 10 0
-76 -10 0
41 113 0
-41 -113 0
124 39 0
-124 -39 0
92 13 0
-92 -13 0
8 20 0
-8 -20 0
11 127 0
-11 -127 0
13 9 0
-13 -9 0
123 30 0
-123 -30 0
80 105 0
-80 -105 0
120 24 0
-120 -24 0
72 123 0
-72 -123 0
73 2 0
-73 -2 0
7 15 0
-7 -15 0
81 1 0
-81 -1 0
72 54 0
-72 -54 0
109 118 0
-109 -118 0
51 97 0
-51 -97 0
120 65 0
-120 -65 0
133 1 0
-133 -1 0
2 128 0
-2 -128 0
108 66 0
-108 -66 0
10 66 0
-10 -66 0
47 124 0
-47 -124 0
131 136 0
-131 -136 0
91 55 0
-91 -55 0
88 114 0
-88 -114 0
109 84 0
-109 -84 0
102 83 0
-102 -83 0
133 17 0
-133 -17 0
44 69 0
-44 -69 0
111 101 0
-111 -101 0
4 54 0
-4 -54 0
58 39 0
-58 -39 0
64 30 0
-64 -30 0
26 71 0
-26 -71 0
92 97 0
-92 -97 0
140 103 0
-140 -103 0
104 61 0
-104 -61 0
85 32 0
-85 -32 0
108 115 0
-108 -115 0
11 136 0
-11 -136 0
123 12 0
-123 -12 0
120 55 0
-120 -55 0
81 38 0
-81 -38 0
81 128 0
-81 -128 0
92 38 0
-92 -38 0
72 69 0
-72 -69 0
28 136 0
-28 -136 0
121 124 0
-121 -124 0
85 108 0
-85 -108 0
47 94 0
-47 -94 0
134 58 0
-134 -58 0
61 115 0
-61 -115 0
106 31 0
-106 -31 0
77 20 0
-77 -20 0
46 127 0
-46 -127 0
48 77 0
-48 -77 0
108 91 0
-108 -91 0
81 36 0
-81 -36 0
27 126 0
-27 -126 0
48 3 0
-48 -3 0
86 6 0
-86 -6 0
7 125 0
-7 -125 0
11 17 0
-11 -17 0
67 47 0
-67 -47 0
91 38 0
-91 -38 0
139 5 0
-139 -5 0
138 94 0
-138 -94 0
110 129 0
-110 -129 0
79 69 0
-79 -69 0
80 116 0
-80 -116 0
6 125 0
-6 -125 0
25 26 0
-25 -26 0
109 78 0
-109 -78 0
82 116 0
-82 -116 0
74 77 0
-74 -77 0
29 80 0
-29 -80 0
51 41 0
-51 -41 0
81 55 0
-81 -55 0
125 84 0
-125 -84 0
97 135 0
-97 -135 0
18 128 0
-18 -128 0
90 82 0
-90 -82 0
29 47 0
-29 -47 0
109 23 0
-109 -23 0
48 7 0
-48 -7 0
77 30 0
-77 -30 0
88 83 0
-88 -83 0
134 97 0
-134 -97 0
134 33 0
-134 -33 0
124 66 0
-124 -66 0
114 80 0
-114 -80 0
63 64 0
-63 -64 0
38 33 0
-38 -33 0
5 33 0
-5 -33 0
1 34 0
-1 -34 0
104 73 0
-104 -73 0
72 100 0
-72 -100 0
11 60 0
-11 -60 0
72 1 0
-72 -1 0
2 23 0
-2 -23 0
74 93 0
-74 -93 0
43 39 0
-43 -39 0
95 32 0
-95 -32 0
45 66 0
-45 -66 0
111 137 0
-111 -137 0
118 135 0
-118 -135 0
134 124 0
-134 -124 0
78 84 0
-78 -84 0
60 132 0
-60 -132 0
7 132 0
-7 -132 0
51 54 0
-51 -54 0
109 89 0
-109 -89 0
66 39 0
-66 -39 0
139 120 0
-139 -120 0
10 42 0
-10 -42 0
115 66 0
-115 -66 0
73 121 0
-73 -121 0
46 42 0
-46 -42 0
65 84 0
-65 -84 0
121 98 0
-121 -98 0
136 50 0
-136 -50 0
26 3 0
-26 -3 0
70 35 0
-70 -35 0
76 24 0
-76 -24 0
7 98 0
-7 -98 0
92 99 0
-92 -99 0
28 54 0
-28 -54 0
105 32 0
-105 -32 0
99 78 0
-99 -78 0
88 132 0
-88 -132 0
77 11 0
-77 -11 0
67 1 0
-67 -1 0
18 66 0
-18 -66 0
18 135 0
-18 -135 0
96 70 0
-96 -70 0
66 100 0
-66 -100 0
79 59 0
-79 -59 0
114 62 0
-114 -62 0
61 32 0
-61 -32 0
21 131 0
-21 -131 0
77 1 0
-77 -1 0
36 66 0
-36 -66 0
53 38 0
-53 -38 0
48 119 0
-48 -119 0
131 1 0
-131 -1 0
48 12 0
-48 -12 0
81 116 0
-81 -116 0
116 132 0
-116 -132 0
106 90 0
-106 -90 0
65 124 0
-65 -124 0
46 49 0
-46 -49 0
11 22 0
-11 -22 0
76 127 0
-76 -127 0
139 40 0
-139 -40 0
131 36 0
-131 -36 0
42 16 0
-42 -16 0
85 87 0
-85 -87 0
44 66 0
-44 -66 0
43 9 0
-43 -9 0
52 82 0
-52 -82 0
51 42 0
-51 -42 0
53 124 0
-53 -124 0
86 73 0
-86 -73 0
68 39 0
-68 -39 0
6 94 0
-6 -94 0
66 84 0
-66 -84 0
44 139 0
-44 -139 0
92 7 0
-92 -7 0
106 129 0
-106 -129 0
47 32 0
-47 -32 0
121 5 0
-121 -5 0
48 50 0
-48 -50 0
86 4 0
-86 -4 0
120 137 0
-120 -137 0
86 14 0
-86 -14 0
112 79 0
-112 -79 0
130 33 0
-130 -33 0
102 121 0
-102 -121 0
107 47 0
-107 -47 0
58 54 0
-58 -54 0
134 44 0
-134 -44 0
14 3 0
-14 -3 0
30 137 0
-30 -137 0
95 36 0
-95 -36 0
106 130 0
-106 -130 0
79 89 0
-79 -89 0
97 17 0
-97 -17 0
80 98 0
-80 -98 0
96 92 0
-96 -92 0
29 92 0
-29 -92 0
76 71 0
-76 -71 0
27 49 0
-27 -49 0
109 136 0
-109 -136 0
2 5 0
-2 -5 0
134 67 0
-134 -67 0
61 84 0
-61 -84 0
103 25 0
-103 -25 0
102 16 0
-102 -16 0
70 68 0
-70 -68 0
112 126 0
-112 -126 0
140 116 0
-140 -116 0
2 121 0
-2 -121 0
48 61 0
-48 -61 0
3 37 0
-3 -37 0
75 84 0
-75 -84 0
31 69 0
-31 -69 0
10 100 0
-10 -100 0
22 35 0
-22 -35 0
114 108 0
-114 -108 0
80 10 0
-80 -10 0
34 49 0
-34 -49 0
109 75 0
-109 -75 0
18 12 0
-18 -12 0
42 40 0
-42 -40 0
6 122 0
-6 -122 0
9 20 0
-9 -20 0
108 60 0
-108 -60 0
42 60 0
-42 -60 0
77 93 0
-77 -93 0
87 46 0
-87 -46 0
53 113 0
-53 -113 0
79 128 0
-79 -128 0
121 95 0
-121 -95 0
86 70 0
-86 -70 0
57 22 0
-57 -22 0
106 66 0
-106 -66 0
11 100 0
-11 -100 0
124 126 0
-124 -126 0
52 64 0
-52 -64 0
86 108 0
-86 -108 0
14 4 0
-14 -4 0
87 39 0
-87 -39 0
131 3 0
-131 -3 0
91 101 0
-91 -101 0
61 50 0
-61 -50 0
7 60 0
-7 -60 0
21 54 0
-21 -54 0
21 116 0
-21 -116 0
72 17 0
-72 -17 0
119 112 0
-119 -112 0
111 129 0
-111 -129 0
13 15 0
-13 -15 0
108 37 0
-108 -37 0
74 111 0
-74 -111 0
43 55 0
-43 -55 0
104 112 0
-104 -112 0
5 127 0
-5 -127 0
130 122 0
-130 -122 0
118 75 0
-118 -75 0
103 129 0
-103 -129 0
73 133 0
-73 -133 0
18 8 0
-18 -8 0
88 91 0
-88 -91 0
70 19 0
-70 -19 0
85 54 0
-85 -54 0
44 21 0
-44 -21 0
140 66 0
-140 -66 0
70 136 0
-70 -136 0
96 39 0
-96 -39 0
127 55 0
-127 -55 0
28 23 0
-28 -23 0
10 130 0
-10 -130 0
3 82 0
-3 -82 0
13 98 0
-13 -98 0
104 44 0
-104 -44 0
93 57 0
-93 -57 0
103 136 0
-103 -136 0
2 129 0
-2 -129 0
59 23 0
-59 -23 0
107 139 0
-107 -139 0
138 122 0
-138 -122 0
109 79 0
-109 -79 0
29 59 0
-29 -59 0
27 9 0
-27 -9 0
